Problem:    
Rows:       68
Columns:    29 (20 integer, 20 binary)
Non-zeros:  210
Status:     INTEGER OPTIMAL
Objective:  value = 91.91775 (MINimum)

   No.   Row name        Activity     Lower bound   Upper bound
------ ------------    ------------- ------------- -------------
     1 r.5                   91.9177             0               
     2 r.6                   91.9177      -998.765               
     3 r.7                   1091.92             0               
     4 r.8                  -908.082      -997.804               
     5 r.9                   1091.92             0               
     6 r.10                 -908.082      -912.588               
     7 r.11                  91.9177             0               
     8 r.12                  91.9177      -909.621               
     9 r.13                  91.9177             0               
    10 r.14                  91.9177      -907.537               
    11 r.15                  1091.92             0               
    12 r.16                 -910.279      -916.382               
    13 r.17                  91.9177             0               
    14 r.18                  6.88103      -999.351               
    15 r.19                  1091.92             0               
    16 r.20                 -997.573      -997.573               
    17 r.21                        1             1             = 
    18 r.22                        1             1             = 
    19 r.23                        1             1             = 
    20 r.24                        1             1             = 
    21 r.25                     1001             2               
    22 r.26                    -1001         -1001               
    23 r.27                     2000      -912.588               
    24 r.28                     1001             2               
    25 r.29                    -1001         -1001               
    26 r.30                     2000      -909.621               
    27 r.31                     1000             2               
    28 r.32                    -1000         -1001               
    29 r.33                     2000      -907.537               
    30 r.34                        2             2               
    31 r.35                       -2         -1001               
    32 r.36                 -2.19627      -916.382               
    33 r.37                  87.4125      -998.765               
    34 r.38                 -912.588      -997.804               
    35 r.39                  87.4125      -998.765               
    36 r.40                 -912.588      -997.804               
    37 r.41                     1001             2               
    38 r.42                    -1001         -1001               
    39 r.43                     2000       1.23549               
    40 r.44                     1001             2               
    41 r.45                    -1001         -1001               
    42 r.46                     2000       2.19627               
    43 r.47                     1001             2               
    44 r.48                    -1001         -1001               
    45 r.49                     2000      -907.537               
    46 r.50                     1001             2               
    47 r.51                    -1001         -1001               
    48 r.52                   1997.8      -916.382               
    49 r.53                 -912.588      -912.588               
    50 r.54                  87.4125      -909.621               
    51 r.55                 -912.588      -912.588               
    52 r.56                  87.4125      -909.621               
    53 r.57                     1000             2               
    54 r.58                    -1000         -1001               
    55 r.59                     2000       1.23549               
    56 r.60                        2             2               
    57 r.61                       -2         -1001               
    58 r.62                  2.19627       2.19627               
    59 r.63                     1001             2               
    60 r.64                    -1001         -1001               
    61 r.65                     2000       87.4125               
    62 r.66                     1001             2               
    63 r.67                    -1001         -1001               
    64 r.68                   2002.2       90.3794               
    65 r.69                  87.4125      -907.537               
    66 r.70                 -914.784      -916.382               
    67 r.71                  87.4125      -907.537               
    68 r.72                 -914.784      -916.382               

   No. Column name       Activity     Lower bound   Upper bound
------ ------------    ------------- ------------- -------------
     1 tt                    91.9177             0               
     2 s_1_1        *              0             0             1 
     3 t_1_1                       0             0               
     4 s_2_1        *              1             0             1 
     5 t_2_1                       0             0               
     6 s_1_2        *              1             0             1 
     7 t_1_2                       0             0               
     8 s_2_2        *              0             0             1 
     9 t_2_2                       0             0               
    10 s_1_3        *              0             0             1 
    11 t_1_3                       0             0               
    12 s_2_3        *              1             0             1 
    13 t_2_3                 2.19627             0               
    14 s_1_4        *              0             0             1 
    15 t_1_4                 87.4125             0               
    16 s_2_4        *              1             0             1 
    17 t_2_4                 87.4125             0               
    18 r_1_1_2      *              1             0             1 
    19 u_1_1_2      *              0             0             1 
    20 r_2_1_2      *              1             0             1 
    21 u_2_1_2      *              0             0             1 
    22 r_1_1_3      *              1             0             1 
    23 u_1_1_3      *              0             0             1 
    24 r_2_1_3      *              0             0             1 
    25 u_2_1_3      *              0             0             1 
    26 r_1_2_3      *              1             0             1 
    27 u_1_2_3      *              0             0             1 
    28 r_2_2_3      *              1             0             1 
    29 u_2_2_3      *              0             0             1 

Integer feasibility conditions:

KKT.PE: max.abs.err = 0.00e+00 on row 0
        max.rel.err = 0.00e+00 on row 0
        High quality

KKT.PB: max.abs.err = 1.14e-13 on row 16
        max.rel.err = 1.14e-16 on row 16
        High quality

End of output
